
Gurobi 10.0.1 (mac64[arm]) logging started Mon Sep 18 22:57:45 2023

Set parameter LogFile to value "scenario_capacity/CAP_f/results/CAP_f_0/mip_log.txt"
Gurobi Optimizer version 10.0.1 build v10.0.1rc0 (mac64[arm])

CPU model: Apple M1
Thread count: 8 physical cores, 8 logical processors, using up to 8 threads

Optimize a model with 5082 rows, 18879 columns and 74316 nonzeros
Model fingerprint: 0x95207deb
Model has 26934 general constraints
Variable types: 3 continuous, 18876 integer (1224 binary)
Coefficient statistics:
  Matrix range     [6e-02, 3e+05]
  Objective range  [9e-02, 2e+05]
  Bounds range     [1e+00, 2e+07]
  RHS range        [4e+03, 2e+04]
  GenCon rhs range [1e+00, 1e+00]
  GenCon coe range [1e+00, 1e+00]

MIP start from previous solve produced solution with objective 5.72783e+07 (1.05s)
MIP start from previous solve produced solution with objective 5.72338e+07 (1.07s)
MIP start from previous solve produced solution with objective 5.72185e+07 (1.14s)
MIP start from previous solve produced solution with objective 5.71804e+07 (1.68s)
MIP start from previous solve produced solution with objective 5.71331e+07 (1.72s)
MIP start from previous solve produced solution with objective 5.71246e+07 (1.92s)
MIP start from previous solve produced solution with objective 5.67911e+07 (2.02s)
Loaded MIP start from previous solve with objective 5.67911e+07
Processed MIP start in 2.45 seconds (3.19 work units)

Presolve removed 3432 rows and 12959 columns
Presolve time: 0.36s
Presolved: 1650 rows, 5920 columns, 23713 nonzeros
Presolved model has 4 SOS constraint(s)
Variable types: 0 continuous, 5920 integer (34 binary)

Root relaxation: objective 5.259885e+07, 7195 iterations, 0.08 seconds (0.11 work units)

    Nodes    |    Current Node    |     Objective Bounds      |     Work
 Expl Unexpl |  Obj  Depth IntInf | Incumbent    BestBd   Gap | It/Node Time

     0     0 5.2599e+07    0  336 5.6791e+07 5.2599e+07  7.38%     -    2s
     0     0 5.2734e+07    0  777 5.6791e+07 5.2734e+07  7.14%     -    2s
     0     0 5.2735e+07    0  741 5.6791e+07 5.2735e+07  7.14%     -    3s
     0     0 5.2735e+07    0  750 5.6791e+07 5.2735e+07  7.14%     -    3s
     0     0 5.2735e+07    0  749 5.6791e+07 5.2735e+07  7.14%     -    3s
     0     0 5.2802e+07    0  787 5.6791e+07 5.2802e+07  7.02%     -    3s
     0     0 5.2820e+07    0  900 5.6791e+07 5.2820e+07  6.99%     -    3s
     0     0 5.2836e+07    0  902 5.6791e+07 5.2836e+07  6.96%     -    3s
     0     0 5.2848e+07    0  905 5.6791e+07 5.2848e+07  6.94%     -    3s
     0     0 5.2848e+07    0  911 5.6791e+07 5.2848e+07  6.94%     -    3s
     0     0 5.2894e+07    0  940 5.6791e+07 5.2894e+07  6.86%     -    3s
     0     0 5.2980e+07    0  958 5.6791e+07 5.2980e+07  6.71%     -    3s
     0     0 5.2999e+07    0  961 5.6791e+07 5.2999e+07  6.68%     -    3s
     0     0 5.2999e+07    0  962 5.6791e+07 5.2999e+07  6.68%     -    3s
     0     0 5.3055e+07    0  814 5.6791e+07 5.3055e+07  6.58%     -    3s
     0     0 5.3075e+07    0  767 5.6791e+07 5.3075e+07  6.54%     -    3s
H    0     0                    5.679093e+07 5.3075e+07  6.54%     -    3s
     0     2 5.3075e+07    0  744 5.6791e+07 5.3075e+07  6.54%     -    3s
H   58    60                    5.679093e+07 5.4232e+07  4.51%   375    3s
H  151   131                    5.671557e+07 5.4232e+07  4.38%   309    4s
   412   273 infeasible   17      5.6716e+07 5.4493e+07  3.92%   231    5s
H  917   541                    5.668658e+07 5.4688e+07  3.53%   173    5s
H 2123  1099                    5.668657e+07 5.5140e+07  2.73%   159    7s
H 2208   770                    5.664915e+07 5.5140e+07  2.66%   155    7s
H 2243   756                    5.664859e+07 5.5140e+07  2.66%   152    7s
H 2550   819                    5.664855e+07 5.5140e+07  2.66%   153    8s
H 2557   781                    5.659520e+07 5.5140e+07  2.57%   153    8s
  3805   782 5.6508e+07   33  267 5.6595e+07 5.5140e+07  2.57%   122   10s
H 5769  1044                    5.653100e+07 5.5140e+07  2.46%  99.0   10s
H 5977  1080                    5.652967e+07 5.5140e+07  2.46%  97.5   10s
H 7083  1293                    5.652967e+07 5.5140e+07  2.46%  94.9   11s
 15259  5579 5.5938e+07   24  171 5.6530e+07 5.5420e+07  1.96%  72.4   15s
H15941  2456                    5.647840e+07 5.5429e+07  1.86%  71.2   15s
H16577  2313                    5.647796e+07 5.5453e+07  1.81%  71.2   15s
*18598  2264              30    5.643961e+07 5.5564e+07  1.55%  72.8   16s
 24646  3067 5.6430e+07   32  224 5.6440e+07 5.5769e+07  1.19%  72.5   20s
H28633  2152                    5.641264e+07 5.5910e+07  0.89%  69.9   21s
H34248   915                    5.640063e+07 5.6220e+07  0.32%  71.0   24s
H35176   847                    5.639096e+07 5.6255e+07  0.24%  71.1   24s
H35897  1172                    5.632101e+07 5.6272e+07  0.09%  71.1   24s
H36810  1172                    5.632101e+07 5.6272e+07  0.09%  69.9   24s
 37099  1333 5.6321e+07   67    4 5.6321e+07 5.6272e+07  0.09%  69.5   25s
*37281  1227              89    5.632100e+07 5.6272e+07  0.09%  69.2   25s

Explored 39428 nodes (2604032 simplex iterations) in 25.59 seconds (30.90 work units)
Thread count was 8 (of 8 available processors)

Solution count 10: 5.6321e+07 5.6321e+07 5.6321e+07 ... 5.65297e+07

Optimal solution found (tolerance 1.00e-04)
Best objective 5.632099753100e+07, best bound 5.632099623796e+07, gap 0.0000%
